! B3LYP def2-SVP TightSCF

* xyzfile 0 1 phos_opt.xyz
