! B3LYP def2-SVP TightSCF

* xyzfile 1 2 pocl2_opt.xyz
