! B3LYP def2-SVP TightSCF

* xyzfile -1 2 test_opt.xyz
