! B3LYP def2-SVP Opt TightSCF

* xyzfile 0 1 test.xyz
